z1,z2,z3,nondominated
4,5,10,0
8,6,7,0
6,1,9,0
5,10,4,0
2,8,8,0
10,5,3,0
9,6,5,0
8,7,7,0
9,3,6,0
5,10,3,0
7,5,8,0
3,4,10,0
5,6,9,0
8,8,5,0
7,8,7,0
5,8,8,0
7,2,9,0
7,9,5,0
6,5,9,0
6,2,9,0
5,8,8,0
2,7,9,0
9,5,5,0
5,6,9,0
7,7,8,0
5,8,8,0
9,7,1,0
1,6,9,0
2,8,8,0
6,6,8,0
2,9,7,0
6,3,9,0
9,6,2,0
9,7,3,0
5,9,7,0
9,7,4,0
1,1,1,0
1,1,1,0
1,1,1,0
1,1,1,0
1,1,1,0
1,1,1,0
